OBJ 34033163.0
12 27
27 7
27 31
11 21
21 23
23 24
23 30
24 25
24 10
8 25
25 26
1 28
28 29
30 19
30 9
26 7
31 17
31 15
29 19
29 20
46 13
46 5
10 42
42 4
42 43
44 43
44 16
43 14
5 50
50 6
50 18
14 54
54 53
54 2
18 52
52 53
53 3
